1026.74
0 42 8 74 39 1 25 26 32 24 68 65 21 29 67 71 22 28 36 50 27 35 52 43 14 45 4 51 19 13 61 49 7 3 40 59 38 9 16 57 34 17 6 2 48 58 46 70 72 10 69 47 23 63 12 11 41 54 53 60 56 5 55 30 37 64 20 33 66 62 31 15 73 44 18
